nNurses = 100;
nHours = 27;
minHours = 9;
maxHours = 13;
maxConsec = 8;
maxPresence = 19;
demand = [15, 18, 20, 21, 26, 26, 23, 18, 15, 14, 9, 6, 8, 12, 10, 10, 15, 11, 6, 9, 11, 14, 19, 22, 27, 26, 25];
